words_train/words_557_SAT.qaiger
aag 105 16 0 1 89
16
30
18
2
6
32
4
12
10
20
14
22
8
28
26
24
211
34 33 31
36 34 29
38 36 27
40 38 25
42 40 23
44 41 22
46 45 43
48 32 30
50 35 28
52 50 49
54 49 35
56 51 37
58 56 55
60 59 53
62 54 33
64 62 61
66 37 26
68 67 39
70 57 53
72 70 69
74 71 68
76 75 73
78 76 64
80 39 24
82 81 41
84 83 72
86 82 73
88 87 85
90 88 78
92 90 47
94 84 47
96 42 21
98 43 20
100 99 97
102 100 95
104 101 94
106 105 103
108 107 93
110 106 92
112 111 109
114 112 14
116 95 93
118 85 46
120 118 91
122 121 116
124 122 12
126 89 79
128 127 91
130 128 10
132 129 11
134 77 65
136 135 79
138 137 9
140 136 8
142 31 4
144 30 5
146 32 3
148 146 145
150 149 143
152 151 6
154 150 7
156 63 60
158 157 65
160 158 155
162 161 153
164 162 141
166 165 139
168 166 133
170 169 131
172 170 125
174 113 15
176 123 13
178 177 175
180 178 173
182 181 115
184 103 92
186 185 105
188 19 16
190 18 17
192 191 189
194 192 96
196 193 97
198 197 195
200 199 186
202 198 187
204 203 201
206 205 183
208 204 182
210 209 207
i0 1 x[7]
i1 2 z[6]
i2 2 z[0]
i3 1 x[0]
i4 1 x[2]
i5 2 z[7]
i6 1 x[1]
i7 1 x[5]
i8 1 x[4]
i9 2 z[1]
i10 1 x[6]
i11 2 z[2]
i12 1 x[3]
i13 2 z[5]
i14 2 z[4]
i15 2 z[3]
o0 bv[0]
c
simplified
  <=
    subtract
      invert
        1
      reverse
        2 z
    xor
      1 x
      1
