words_train/words_557_SAT.qaiger.qdimacs
p cnf 105 268
a 1 2 3 4 5 6 7 8 0
e 9 10 11 12 13 14 15 16 17 18 19 20 21 22 23 24 25 26 27 28 29 30 31 32 33 34 35 36 37 38 39 40 41 42 43 44 45 46 47 48 49 50 51 52 53 54 55 56 57 58 59 60 61 62 63 64 65 66 67 68 69 70 71 72 73 74 75 76 77 78 79 80 81 82 83 84 85 86 87 88 89 90 91 92 93 94 95 96 97 98 99 100 101 102 103 104 105 0
16 15 17 0
-16 -17 0
-15 -17 0
-17 14 18 0
17 -18 0
-14 -18 0
-18 13 19 0
18 -19 0
-13 -19 0
-19 12 20 0
19 -20 0
-12 -20 0
-20 11 21 0
20 -21 0
-11 -21 0
20 -11 22 0
-20 -22 0
11 -22 0
22 21 23 0
-22 -23 0
-21 -23 0
-16 -15 24 0
16 -24 0
15 -24 0
17 -14 25 0
-17 -25 0
14 -25 0
-25 24 26 0
25 -26 0
-24 -26 0
24 17 27 0
-24 -27 0
-17 -27 0
25 18 28 0
-25 -28 0
-18 -28 0
-28 27 29 0
28 -29 0
-27 -29 0
29 26 30 0
-29 -30 0
-26 -30 0
-27 16 31 0
27 -31 0
-16 -31 0
-31 30 32 0
31 -32 0
-30 -32 0
18 -13 33 0
-18 -33 0
13 -33 0
33 19 34 0
-33 -34 0
-19 -34 0
28 26 35 0
-28 -35 0
-26 -35 0
-35 34 36 0
35 -36 0
-34 -36 0
35 -34 37 0
-35 -37 0
34 -37 0
37 36 38 0
-37 -38 0
-36 -38 0
-38 -32 39 0
38 -39 0
32 -39 0
19 -12 40 0
-19 -40 0
12 -40 0
40 20 41 0
-40 -41 0
-20 -41 0
41 -36 42 0
-41 -42 0
36 -42 0
-41 36 43 0
41 -43 0
-36 -43 0
43 42 44 0
-43 -44 0
-42 -44 0
-44 -39 45 0
44 -45 0
39 -45 0
-45 23 46 0
45 -46 0
-23 -46 0
-42 23 47 0
42 -47 0
-23 -47 0
-21 10 48 0
21 -48 0
-10 -48 0
21 -10 49 0
-21 -49 0
10 -49 0
49 48 50 0
-49 -50 0
-48 -50 0
-50 47 51 0
50 -51 0
-47 -51 0
50 -47 52 0
-50 -52 0
47 -52 0
52 51 53 0
-52 -53 0
-51 -53 0
53 46 54 0
-53 -54 0
-46 -54 0
-53 -46 55 0
53 -55 0
46 -55 0
55 54 56 0
-55 -56 0
-54 -56 0
-56 -7 57 0
56 -57 0
7 -57 0
47 46 58 0
-47 -58 0
-46 -58 0
42 -23 59 0
-42 -59 0
23 -59 0
-59 45 60 0
59 -60 0
-45 -60 0
60 -58 61 0
-60 -61 0
58 -61 0
-61 -6 62 0
61 -62 0
6 -62 0
44 39 63 0
-44 -63 0
-39 -63 0
63 45 64 0
-63 -64 0
-45 -64 0
-64 -5 65 0
64 -65 0
5 -65 0
64 5 66 0
-64 -66 0
-5 -66 0
38 32 67 0
-38 -67 0
-32 -67 0
67 39 68 0
-67 -68 0
-39 -68 0
68 4 69 0
-68 -69 0
-4 -69 0
-68 -4 70 0
68 -70 0
4 -70 0
15 -2 71 0
-15 -71 0
2 -71 0
-15 2 72 0
15 -72 0
-2 -72 0
-16 1 73 0
16 -73 0
-1 -73 0
-73 72 74 0
73 -74 0
-72 -74 0
74 71 75 0
-74 -75 0
-71 -75 0
75 -3 76 0
-75 -76 0
3 -76 0
-75 3 77 0
75 -77 0
-3 -77 0
31 -30 78 0
-31 -78 0
30 -78 0
78 32 79 0
-78 -79 0
-32 -79 0
-79 77 80 0
79 -80 0
-77 -80 0
80 76 81 0
-80 -81 0
-76 -81 0
-81 70 82 0
81 -82 0
-70 -82 0
82 69 83 0
-82 -83 0
-69 -83 0
-83 66 84 0
83 -84 0
-66 -84 0
84 65 85 0
-84 -85 0
-65 -85 0
-85 62 86 0
85 -86 0
-62 -86 0
56 7 87 0
-56 -87 0
-7 -87 0
61 6 88 0
-61 -88 0
-6 -88 0
88 87 89 0
-88 -89 0
-87 -89 0
-89 86 90 0
89 -90 0
-86 -90 0
90 57 91 0
-90 -91 0
-57 -91 0
51 -46 92 0
-51 -92 0
46 -92 0
92 52 93 0
-92 -93 0
-52 -93 0
9 -8 94 0
-9 -94 0
8 -94 0
-9 8 95 0
9 -95 0
-8 -95 0
95 94 96 0
-95 -96 0
-94 -96 0
-96 -48 97 0
96 -97 0
48 -97 0
96 48 98 0
-96 -98 0
-48 -98 0
98 97 99 0
-98 -99 0
-97 -99 0
99 -93 100 0
-99 -100 0
93 -100 0
-99 93 101 0
99 -101 0
-93 -101 0
101 100 102 0
-101 -102 0
-100 -102 0
102 91 103 0
-102 -103 0
-91 -103 0
-102 -91 104 0
102 -104 0
91 -104 0
104 103 105 0
-104 -105 0
-103 -105 0
-105 0
